c ren 1 -> 1
c ren 2 -> 2
c ren 4 -> 3
c ren 7 -> 4
c ren 9 -> 5
c ren 10 -> 6
c ren 12 -> 7
c ren 15 -> 8
c ren 18 -> 9
c ren 19 -> 10
c ren 21 -> 11
c ren 23 -> 12
c ren 28 -> 13
c ren 29 -> 14
c ren 31 -> 15
c ren 34 -> 16
c ren 35 -> 17
c ren 36 -> 18
c ren 38 -> 19
c ren 40 -> 20
c ren 43 -> 21
c ren 46 -> 22
c ren 52 -> 23
c ren 53 -> 24
c ren 54 -> 25
c ren 57 -> 26
c ren 60 -> 27
c ren 63 -> 28
c ren 130 -> 29
c ren 149 -> 30
c ren 155 -> 31
p cnf 31 119
a 1 2 3 5 6 7 9 10 11 13 14 15 16 17 19 20 21 22 24 25 27 0
d 12 1 5 0
d 29 21 22 0
d 30 9 13 0
d 31 24 27 0
e 4 8 18 23 26 28 0
-1 -2 -4 0
-1 2 3 4 0
-3 -12 14 -15 23 -26 -28 0
1 2 3 -4 0
-2 -12 14 -15 23 -26 -28 0
2 3 6 7 12 14 -15 23 -26 -28 0
-5 -6 -8 0
-5 6 7 8 0
5 6 7 -8 0
-6 27 28 0
8 23 0
-4 -8 9 12 13 -20 -23 0
-4 -8 9 -10 13 -22 -23 0
1 -2 4 0
-4 -8 9 11 13 -21 -23 0
-4 -8 9 -10 13 18 -23 0
-4 -8 -9 10 -11 -12 13 -21 -23 0
-4 -8 9 12 13 -19 -23 0
-4 -8 -9 10 -11 -12 -13 14 15 -18 19 20 21 22 -23 0
-4 -8 -9 10 -11 -12 13 -19 -23 0
-4 -8 -9 10 -11 -12 13 -14 -23 0
-4 -8 -9 10 -11 -12 13 18 -23 0
-4 -8 -9 10 -11 -12 13 -15 -23 0
-4 -8 9 11 13 -22 -23 0
-4 -8 9 11 13 -20 -23 0
2 3 6 7 12 14 16 -17 23 -26 -28 0
-16 -17 18 0
16 17 18 0
-16 17 -18 0
16 -17 -18 0
-7 27 28 0
-12 14 15 -16 -18 19 -20 23 -26 -28 0
-4 -8 9 12 13 -21 -23 0
-4 -8 9 -10 -13 14 15 -18 19 20 21 22 -23 0
-20 23 -26 -28 -30 0
-2 10 11 -12 14 -18 19 21 22 23 25 -26 -28 0
-21 23 -26 -28 -30 0
-1 -3 -4 0
2 3 6 7 12 14 16 19 21 -22 23 -26 -28 0
-4 -8 9 -10 13 -19 -23 0
-19 23 -26 -28 -30 0
-4 -8 9 12 -13 14 15 -18 19 20 21 22 -23 0
11 23 -26 -28 -30 0
-22 23 -26 -28 -30 0
-4 -8 9 12 13 18 -23 0
2 3 -24 -25 26 0
10 11 -18 19 20 21 22 23 25 -26 -28 -31 0
5 -6 8 0
-3 10 11 -18 19 20 21 22 23 -26 -28 -31 0
-2 10 11 -18 19 20 21 22 23 -26 -28 -31 0
-2 24 26 0
10 11 -14 -18 19 20 21 22 23 -26 -28 -31 0
10 11 -15 -18 19 20 21 22 23 -26 -28 -31 0
2 3 6 7 -10 14 15 -17 -18 20 22 23 -26 -28 0
5 -7 8 0
-4 -8 9 12 13 -14 -23 0
-4 -8 -9 10 -11 -12 13 -20 -23 0
-4 -8 9 12 13 -15 -23 0
-4 -8 9 11 13 -19 -23 0
1 -3 4 0
-4 -8 -9 10 -11 -12 13 -22 -23 0
2 3 6 7 14 15 16 17 19 20 21 -22 23 -26 -28 29 0
-2 23 -26 -28 -30 0
-6 23 -26 -28 -30 0
-4 -8 9 11 13 -14 -23 0
6 7 14 15 -27 28 0
-4 -8 9 -10 13 -15 -23 0
-4 -8 9 11 -13 14 15 -18 19 20 21 22 -23 0
-4 -8 9 11 13 18 -23 0
-4 -8 9 11 13 -15 -23 0
-3 -12 14 -18 19 -20 23 -26 -28 0
-7 -12 14 -15 23 -26 -28 0
-3 -12 14 -18 19 23 -26 -28 -29 0
-3 10 11 -12 14 -18 19 21 22 23 25 -26 -28 0
-7 -12 14 -18 19 -20 23 -26 -28 0
-6 -12 14 -18 19 -20 23 -26 -28 0
-2 -12 14 -18 19 23 -26 -28 -29 0
-15 23 -26 -28 -30 0
-2 -12 14 16 -17 23 -26 -28 0
2 3 6 7 12 14 16 19 -20 23 -26 -28 0
-3 -12 14 16 -17 23 -26 -28 0
-6 -12 14 -15 23 -26 -28 0
-2 -12 14 -18 19 -20 23 -26 -28 0
4 23 0
-7 10 11 -18 19 20 21 22 23 -26 -28 -31 0
-3 23 -26 -28 -30 0
-14 27 28 0
10 11 -12 14 15 -17 -18 19 20 21 22 23 25 -26 -28 0
-6 10 11 -18 19 20 21 22 23 -26 -28 -31 0
-15 27 28 0
10 11 -16 -18 19 20 21 22 23 -26 -28 -31 0
2 3 6 7 14 15 -17 -18 20 -21 23 -26 -28 0
-3 24 26 0
2 3 6 7 10 11 14 15 16 17 19 20 21 22 23 -25 -26 -28 31 0
-6 -12 14 -18 19 23 -26 -28 -29 0
-7 -12 14 -18 19 23 -26 -28 -29 0
-17 23 -26 -28 -30 0
-7 10 11 -12 14 -18 19 21 22 23 25 -26 -28 0
10 11 -12 14 15 -16 -18 19 21 22 23 25 -26 -28 0
-6 -12 14 16 -17 23 -26 -28 0
-5 -7 -8 0
2 3 6 7 14 15 -16 -18 20 -21 23 -26 -28 0
-7 -12 14 16 -17 23 -26 -28 0
-16 23 -26 -28 -30 0
-4 -8 9 -10 13 -14 -23 0
-4 -8 9 -10 13 -20 -23 0
-14 23 -26 -28 -30 0
-12 14 15 -17 -18 19 20 23 -26 -28 -29 0
-4 -8 9 12 13 -22 -23 0
2 3 6 7 -10 14 15 -16 -18 20 22 23 -26 -28 0
2 3 6 7 10 -11 14 15 16 17 19 20 21 22 23 -26 -28 30 0
-7 23 -26 -28 -30 0
-4 -8 9 -10 13 -21 -23 0
-10 23 -26 -28 -30 0
24 25 26 0
2 3 6 7 14 15 -16 -18 -19 23 -26 -28 0
2 3 6 7 14 15 -17 -18 -19 23 -26 -28 0
-6 10 11 -12 14 -18 19 21 22 23 25 -26 -28 0
2 3 6 7 10 11 12 14 16 19 21 23 25 -26 -28 0
